
Gurobi 8.0.1 (win64, Python) logging started 07/29/19 09:24:08

Academic license - for non-commercial use only
Optimize a model with 1102 rows, 18300 columns and 53143 nonzeros
Variable types: 0 continuous, 18300 integer (18300 binary)
Coefficient statistics:
  Matrix range     [1e+00, 1e+00]
  Objective range  [1e+00, 1e+03]
  Bounds range     [1e+00, 1e+00]
  RHS range        [1e+00, 1e+00]
Presolve removed 265 rows and 2988 columns
Presolve time: 0.33s
Presolved: 837 rows, 15312 columns, 44653 nonzeros
Variable types: 0 continuous, 15312 integer (15312 binary)

Root relaxation: objective -1.297000e+03, 1060 iterations, 0.12 seconds

    Nodes    |    Current Node    |     Objective Bounds      |     Work
 Expl Unexpl |  Obj  Depth IntInf | Incumbent    BestBd   Gap | It/Node Time

     0     0 -1297.0000    0    6          - -1297.0000      -     -    0s
     0     0 -1296.5000    0    9          - -1296.5000      -     -    0s
     0     0 -796.66667    0   25          - -796.66667      -     -    1s
     0     0 -796.33333    0   24          - -796.33333      -     -    1s
     0     0 -796.33333    0   20          - -796.33333      -     -    2s
H    0     0                       3.0000000 -796.33333      -     -    2s
     0     0  -96.50000    0   15    3.00000  -96.50000  3317%     -    2s
*    0     0               0     -96.0000000  -96.00000  0.00%     -    2s
     0     0          -    0       -96.00000  -96.00000  0.00%     -    2s

Cutting planes:
  Zero half: 7

Explored 1 nodes (14715 simplex iterations) in 2.94 seconds
Thread count was 4 (of 4 available processors)

Solution count 2: -96 3 

Optimal solution found (tolerance 1.00e-04)
Best objective -9.600000000000e+01, best bound -9.600000000000e+01, gap 0.0000%
Optimize a model with 1096 rows, 18300 columns and 44404 nonzeros
Variable types: 0 continuous, 18300 integer (18300 binary)
Coefficient statistics:
  Matrix range     [1e+00, 1e+00]
  Objective range  [1e+00, 1e+03]
  Bounds range     [1e+00, 1e+00]
  RHS range        [1e+00, 1e+00]
Presolve removed 270 rows and 2435 columns
Presolve time: 0.19s
Presolved: 826 rows, 15865 columns, 38531 nonzeros
Variable types: 0 continuous, 15865 integer (15865 binary)

Root relaxation: objective -1.798000e+03, 1856 iterations, 0.08 seconds

    Nodes    |    Current Node    |     Objective Bounds      |     Work
 Expl Unexpl |  Obj  Depth IntInf | Incumbent    BestBd   Gap | It/Node Time

*    0     0               0    -1798.000000 -1798.0000  0.00%     -    0s

Explored 0 nodes (1856 simplex iterations) in 0.35 seconds
Thread count was 4 (of 4 available processors)

Solution count 1: -1798 

Optimal solution found (tolerance 1.00e-04)
Best objective -1.798000000000e+03, best bound -1.798000000000e+03, gap 0.0000%
Optimize a model with 1097 rows, 18300 columns and 45708 nonzeros
Variable types: 0 continuous, 18300 integer (18300 binary)
Coefficient statistics:
  Matrix range     [1e+00, 1e+00]
  Objective range  [1e+00, 1e+03]
  Bounds range     [1e+00, 1e+00]
  RHS range        [1e+00, 1e+00]
Presolve removed 269 rows and 2482 columns
Presolve time: 0.20s
Presolved: 828 rows, 15818 columns, 39575 nonzeros
Variable types: 0 continuous, 15818 integer (15818 binary)

Root relaxation: objective -1.698000e+03, 1744 iterations, 0.07 seconds

    Nodes    |    Current Node    |     Objective Bounds      |     Work
 Expl Unexpl |  Obj  Depth IntInf | Incumbent    BestBd   Gap | It/Node Time

*    0     0               0    -1698.000000 -1698.0000  0.00%     -    0s

Explored 0 nodes (1744 simplex iterations) in 0.33 seconds
Thread count was 4 (of 4 available processors)

Solution count 1: -1698 

Optimal solution found (tolerance 1.00e-04)
Best objective -1.698000000000e+03, best bound -1.698000000000e+03, gap 0.0000%
Optimize a model with 1098 rows, 18300 columns and 47156 nonzeros
Variable types: 0 continuous, 18300 integer (18300 binary)
Coefficient statistics:
  Matrix range     [1e+00, 1e+00]
  Objective range  [1e+00, 1e+03]
  Bounds range     [1e+00, 1e+00]
  RHS range        [1e+00, 1e+00]
Presolve removed 269 rows and 2602 columns
Presolve time: 0.20s
Presolved: 829 rows, 15698 columns, 40551 nonzeros
Variable types: 0 continuous, 15698 integer (15698 binary)
Found heuristic solution: objective -1095.000000

Root relaxation: objective -1.597000e+03, 1829 iterations, 0.07 seconds

    Nodes    |    Current Node    |     Objective Bounds      |     Work
 Expl Unexpl |  Obj  Depth IntInf | Incumbent    BestBd   Gap | It/Node Time

*    0     0               0    -1597.000000 -1597.0000  0.00%     -    0s

Explored 0 nodes (1829 simplex iterations) in 0.35 seconds
Thread count was 4 (of 4 available processors)

Solution count 2: -1597 -1095 

Optimal solution found (tolerance 1.00e-04)
Best objective -1.597000000000e+03, best bound -1.597000000000e+03, gap 0.0000%
Optimize a model with 1099 rows, 18300 columns and 48655 nonzeros
Variable types: 0 continuous, 18300 integer (18300 binary)
Coefficient statistics:
  Matrix range     [1e+00, 1e+00]
  Objective range  [1e+00, 1e+03]
  Bounds range     [1e+00, 1e+00]
  RHS range        [1e+00, 1e+00]
Presolve removed 265 rows and 2552 columns
Presolve time: 0.21s
Presolved: 834 rows, 15748 columns, 42009 nonzeros
Variable types: 0 continuous, 15748 integer (15748 binary)

Root relaxation: objective -1.597000e+03, 2124 iterations, 0.08 seconds

    Nodes    |    Current Node    |     Objective Bounds      |     Work
 Expl Unexpl |  Obj  Depth IntInf | Incumbent    BestBd   Gap | It/Node Time

*    0     0               0    -1596.000000 -1596.0000  0.00%     -    0s

Explored 0 nodes (2250 simplex iterations) in 0.38 seconds
Thread count was 4 (of 4 available processors)

Solution count 1: -1596 

Optimal solution found (tolerance 1.00e-04)
Best objective -1.596000000000e+03, best bound -1.596000000000e+03, gap 0.0000%
Optimize a model with 1102 rows, 18300 columns and 53143 nonzeros
Variable types: 0 continuous, 18300 integer (18300 binary)
Coefficient statistics:
  Matrix range     [1e+00, 1e+00]
  Objective range  [1e+00, 1e+03]
  Bounds range     [1e+00, 1e+00]
  RHS range        [1e+00, 1e+00]
Presolve removed 265 rows and 2988 columns
Presolve time: 0.21s
Presolved: 837 rows, 15312 columns, 44653 nonzeros
Variable types: 0 continuous, 15312 integer (15312 binary)

Root relaxation: objective -1.297000e+03, 1060 iterations, 0.08 seconds

    Nodes    |    Current Node    |     Objective Bounds      |     Work
 Expl Unexpl |  Obj  Depth IntInf | Incumbent    BestBd   Gap | It/Node Time

     0     0 -1297.0000    0    6          - -1297.0000      -     -    0s
     0     0 -1296.5000    0    9          - -1296.5000      -     -    0s
     0     0 -796.66667    0   25          - -796.66667      -     -    0s
     0     0 -796.33333    0   24          - -796.33333      -     -    0s
     0     0 -796.33333    0   20          - -796.33333      -     -    1s
H    0     0                       3.0000000 -796.33333      -     -    1s
     0     0  -96.50000    0   15    3.00000  -96.50000  3317%     -    1s
*    0     0               0     -96.0000000  -96.00000  0.00%     -    1s
     0     0          -    0       -96.00000  -96.00000  0.00%     -    1s

Cutting planes:
  Zero half: 7

Explored 1 nodes (14715 simplex iterations) in 1.99 seconds
Thread count was 4 (of 4 available processors)

Solution count 2: -96 3 

Optimal solution found (tolerance 1.00e-04)
Best objective -9.600000000000e+01, best bound -9.600000000000e+01, gap 0.0000%
Optimize a model with 1096 rows, 18300 columns and 44404 nonzeros
Variable types: 0 continuous, 18300 integer (18300 binary)
Coefficient statistics:
  Matrix range     [1e+00, 1e+00]
  Objective range  [1e+00, 1e+03]
  Bounds range     [1e+00, 1e+00]
  RHS range        [1e+00, 1e+00]
Presolve removed 270 rows and 2435 columns
Presolve time: 0.15s
Presolved: 826 rows, 15865 columns, 38531 nonzeros
Variable types: 0 continuous, 15865 integer (15865 binary)

Root relaxation: objective -1.798000e+03, 1856 iterations, 0.05 seconds

    Nodes    |    Current Node    |     Objective Bounds      |     Work
 Expl Unexpl |  Obj  Depth IntInf | Incumbent    BestBd   Gap | It/Node Time

*    0     0               0    -1798.000000 -1798.0000  0.00%     -    0s

Explored 0 nodes (1856 simplex iterations) in 0.27 seconds
Thread count was 4 (of 4 available processors)

Solution count 1: -1798 

Optimal solution found (tolerance 1.00e-04)
Best objective -1.798000000000e+03, best bound -1.798000000000e+03, gap 0.0000%
Optimize a model with 1097 rows, 18300 columns and 45708 nonzeros
Variable types: 0 continuous, 18300 integer (18300 binary)
Coefficient statistics:
  Matrix range     [1e+00, 1e+00]
  Objective range  [1e+00, 1e+03]
  Bounds range     [1e+00, 1e+00]
  RHS range        [1e+00, 1e+00]
Presolve removed 269 rows and 2482 columns
Presolve time: 0.15s
Presolved: 828 rows, 15818 columns, 39575 nonzeros
Variable types: 0 continuous, 15818 integer (15818 binary)

Root relaxation: objective -1.698000e+03, 1744 iterations, 0.07 seconds

    Nodes    |    Current Node    |     Objective Bounds      |     Work
 Expl Unexpl |  Obj  Depth IntInf | Incumbent    BestBd   Gap | It/Node Time

*    0     0               0    -1698.000000 -1698.0000  0.00%     -    0s

Explored 0 nodes (1744 simplex iterations) in 0.28 seconds
Thread count was 4 (of 4 available processors)

Solution count 1: -1698 

Optimal solution found (tolerance 1.00e-04)
Best objective -1.698000000000e+03, best bound -1.698000000000e+03, gap 0.0000%
Optimize a model with 1098 rows, 18300 columns and 47156 nonzeros
Variable types: 0 continuous, 18300 integer (18300 binary)
Coefficient statistics:
  Matrix range     [1e+00, 1e+00]
  Objective range  [1e+00, 1e+03]
  Bounds range     [1e+00, 1e+00]
  RHS range        [1e+00, 1e+00]
Presolve removed 269 rows and 2602 columns
Presolve time: 0.16s
Presolved: 829 rows, 15698 columns, 40551 nonzeros
Variable types: 0 continuous, 15698 integer (15698 binary)
Found heuristic solution: objective -1095.000000

Root relaxation: objective -1.597000e+03, 1829 iterations, 0.07 seconds

    Nodes    |    Current Node    |     Objective Bounds      |     Work
 Expl Unexpl |  Obj  Depth IntInf | Incumbent    BestBd   Gap | It/Node Time

*    0     0               0    -1597.000000 -1597.0000  0.00%     -    0s

Explored 0 nodes (1829 simplex iterations) in 0.29 seconds
Thread count was 4 (of 4 available processors)

Solution count 2: -1597 -1095 

Optimal solution found (tolerance 1.00e-04)
Best objective -1.597000000000e+03, best bound -1.597000000000e+03, gap 0.0000%
Optimize a model with 1099 rows, 18300 columns and 48655 nonzeros
Variable types: 0 continuous, 18300 integer (18300 binary)
Coefficient statistics:
  Matrix range     [1e+00, 1e+00]
  Objective range  [1e+00, 1e+03]
  Bounds range     [1e+00, 1e+00]
  RHS range        [1e+00, 1e+00]
Presolve removed 265 rows and 2552 columns
Presolve time: 0.17s
Presolved: 834 rows, 15748 columns, 42009 nonzeros
Variable types: 0 continuous, 15748 integer (15748 binary)

Root relaxation: objective -1.597000e+03, 2124 iterations, 0.08 seconds

    Nodes    |    Current Node    |     Objective Bounds      |     Work
 Expl Unexpl |  Obj  Depth IntInf | Incumbent    BestBd   Gap | It/Node Time

*    0     0               0    -1596.000000 -1596.0000  0.00%     -    0s

Explored 0 nodes (2250 simplex iterations) in 0.34 seconds
Thread count was 4 (of 4 available processors)

Solution count 1: -1596 

Optimal solution found (tolerance 1.00e-04)
Best objective -1.596000000000e+03, best bound -1.596000000000e+03, gap 0.0000%
Optimize a model with 1102 rows, 18300 columns and 53143 nonzeros
Variable types: 0 continuous, 18300 integer (18300 binary)
Coefficient statistics:
  Matrix range     [1e+00, 1e+00]
  Objective range  [1e+00, 1e+03]
  Bounds range     [1e+00, 1e+00]
  RHS range        [1e+00, 1e+00]
Presolve removed 265 rows and 2988 columns
Presolve time: 0.20s
Presolved: 837 rows, 15312 columns, 44653 nonzeros
Variable types: 0 continuous, 15312 integer (15312 binary)

Root relaxation: objective -1.297000e+03, 1060 iterations, 0.09 seconds

    Nodes    |    Current Node    |     Objective Bounds      |     Work
 Expl Unexpl |  Obj  Depth IntInf | Incumbent    BestBd   Gap | It/Node Time

     0     0 -1297.0000    0    6          - -1297.0000      -     -    0s
     0     0 -1296.5000    0    9          - -1296.5000      -     -    0s
     0     0 -796.66667    0   25          - -796.66667      -     -    0s
     0     0 -796.33333    0   24          - -796.33333      -     -    0s
     0     0 -796.33333    0   20          - -796.33333      -     -    1s
H    0     0                       3.0000000 -796.33333      -     -    1s
     0     0  -96.50000    0   15    3.00000  -96.50000  3317%     -    1s
*    0     0               0     -96.0000000  -96.00000  0.00%     -    1s
     0     0          -    0       -96.00000  -96.00000  0.00%     -    1s

Cutting planes:
  Zero half: 7

Explored 1 nodes (14715 simplex iterations) in 1.99 seconds
Thread count was 4 (of 4 available processors)

Solution count 2: -96 3 

Optimal solution found (tolerance 1.00e-04)
Best objective -9.600000000000e+01, best bound -9.600000000000e+01, gap 0.0000%
Optimize a model with 1096 rows, 18300 columns and 44404 nonzeros
Variable types: 0 continuous, 18300 integer (18300 binary)
Coefficient statistics:
  Matrix range     [1e+00, 1e+00]
  Objective range  [1e+00, 1e+03]
  Bounds range     [1e+00, 1e+00]
  RHS range        [1e+00, 1e+00]
Presolve removed 270 rows and 2435 columns
Presolve time: 0.16s
Presolved: 826 rows, 15865 columns, 38531 nonzeros
Variable types: 0 continuous, 15865 integer (15865 binary)

Root relaxation: objective -1.798000e+03, 1856 iterations, 0.07 seconds

    Nodes    |    Current Node    |     Objective Bounds      |     Work
 Expl Unexpl |  Obj  Depth IntInf | Incumbent    BestBd   Gap | It/Node Time

*    0     0               0    -1798.000000 -1798.0000  0.00%     -    0s

Explored 0 nodes (1856 simplex iterations) in 0.29 seconds
Thread count was 4 (of 4 available processors)

Solution count 1: -1798 

Optimal solution found (tolerance 1.00e-04)
Best objective -1.798000000000e+03, best bound -1.798000000000e+03, gap 0.0000%
Optimize a model with 1102 rows, 18300 columns and 53143 nonzeros
Variable types: 0 continuous, 18300 integer (18300 binary)
Coefficient statistics:
  Matrix range     [1e+00, 1e+00]
  Objective range  [1e+00, 1e+03]
  Bounds range     [1e+00, 1e+00]
  RHS range        [1e+00, 1e+00]
Presolve removed 265 rows and 2988 columns
Presolve time: 0.21s
Presolved: 837 rows, 15312 columns, 44653 nonzeros
Variable types: 0 continuous, 15312 integer (15312 binary)

Root relaxation: objective -1.297000e+03, 1060 iterations, 0.10 seconds

    Nodes    |    Current Node    |     Objective Bounds      |     Work
 Expl Unexpl |  Obj  Depth IntInf | Incumbent    BestBd   Gap | It/Node Time

     0     0 -1297.0000    0    6          - -1297.0000      -     -    0s
     0     0 -1296.5000    0    9          - -1296.5000      -     -    0s
     0     0 -796.66667    0   25          - -796.66667      -     -    0s
     0     0 -796.33333    0   24          - -796.33333      -     -    1s
     0     0 -796.33333    0   20          - -796.33333      -     -    1s
H    0     0                       3.0000000 -796.33333      -     -    1s
     0     0  -96.50000    0   15    3.00000  -96.50000  3317%     -    2s
*    0     0               0     -96.0000000  -96.00000  0.00%     -    2s
     0     0          -    0       -96.00000  -96.00000  0.00%     -    2s

Cutting planes:
  Zero half: 7

Explored 1 nodes (14715 simplex iterations) in 2.16 seconds
Thread count was 4 (of 4 available processors)

Solution count 2: -96 3 

Optimal solution found (tolerance 1.00e-04)
Best objective -9.600000000000e+01, best bound -9.600000000000e+01, gap 0.0000%
Optimize a model with 1096 rows, 18300 columns and 44404 nonzeros
Variable types: 0 continuous, 18300 integer (18300 binary)
Coefficient statistics:
  Matrix range     [1e+00, 1e+00]
  Objective range  [1e+00, 1e+03]
  Bounds range     [1e+00, 1e+00]
  RHS range        [1e+00, 1e+00]
Presolve removed 270 rows and 2435 columns
Presolve time: 0.13s
Presolved: 826 rows, 15865 columns, 38531 nonzeros
Variable types: 0 continuous, 15865 integer (15865 binary)

Root relaxation: objective -1.798000e+03, 1856 iterations, 0.07 seconds

    Nodes    |    Current Node    |     Objective Bounds      |     Work
 Expl Unexpl |  Obj  Depth IntInf | Incumbent    BestBd   Gap | It/Node Time

*    0     0               0    -1798.000000 -1798.0000  0.00%     -    0s

Explored 0 nodes (1856 simplex iterations) in 0.26 seconds
Thread count was 4 (of 4 available processors)

Solution count 1: -1798 

Optimal solution found (tolerance 1.00e-04)
Best objective -1.798000000000e+03, best bound -1.798000000000e+03, gap 0.0000%
Optimize a model with 1097 rows, 18300 columns and 45708 nonzeros
Variable types: 0 continuous, 18300 integer (18300 binary)
Coefficient statistics:
  Matrix range     [1e+00, 1e+00]
  Objective range  [1e+00, 1e+03]
  Bounds range     [1e+00, 1e+00]
  RHS range        [1e+00, 1e+00]
Presolve removed 269 rows and 2482 columns
Presolve time: 0.14s
Presolved: 828 rows, 15818 columns, 39575 nonzeros
Variable types: 0 continuous, 15818 integer (15818 binary)

Root relaxation: objective -1.698000e+03, 1744 iterations, 0.06 seconds

    Nodes    |    Current Node    |     Objective Bounds      |     Work
 Expl Unexpl |  Obj  Depth IntInf | Incumbent    BestBd   Gap | It/Node Time

*    0     0               0    -1698.000000 -1698.0000  0.00%     -    0s

Explored 0 nodes (1744 simplex iterations) in 0.28 seconds
Thread count was 4 (of 4 available processors)

Solution count 1: -1698 

Optimal solution found (tolerance 1.00e-04)
Best objective -1.698000000000e+03, best bound -1.698000000000e+03, gap 0.0000%
Optimize a model with 1098 rows, 18300 columns and 47156 nonzeros
Variable types: 0 continuous, 18300 integer (18300 binary)
Coefficient statistics:
  Matrix range     [1e+00, 1e+00]
  Objective range  [1e+00, 1e+03]
  Bounds range     [1e+00, 1e+00]
  RHS range        [1e+00, 1e+00]
Presolve removed 269 rows and 2602 columns
Presolve time: 0.17s
Presolved: 829 rows, 15698 columns, 40551 nonzeros
Variable types: 0 continuous, 15698 integer (15698 binary)
Found heuristic solution: objective -1095.000000

Root relaxation: objective -1.597000e+03, 1829 iterations, 0.10 seconds

    Nodes    |    Current Node    |     Objective Bounds      |     Work
 Expl Unexpl |  Obj  Depth IntInf | Incumbent    BestBd   Gap | It/Node Time

*    0     0               0    -1597.000000 -1597.0000  0.00%     -    0s

Explored 0 nodes (1829 simplex iterations) in 0.35 seconds
Thread count was 4 (of 4 available processors)

Solution count 2: -1597 -1095 

Optimal solution found (tolerance 1.00e-04)
Best objective -1.597000000000e+03, best bound -1.597000000000e+03, gap 0.0000%
Optimize a model with 1099 rows, 18300 columns and 48655 nonzeros
Variable types: 0 continuous, 18300 integer (18300 binary)
Coefficient statistics:
  Matrix range     [1e+00, 1e+00]
  Objective range  [1e+00, 1e+03]
  Bounds range     [1e+00, 1e+00]
  RHS range        [1e+00, 1e+00]
Presolve removed 265 rows and 2552 columns
Presolve time: 0.18s
Presolved: 834 rows, 15748 columns, 42009 nonzeros
Variable types: 0 continuous, 15748 integer (15748 binary)

Root relaxation: objective -1.597000e+03, 2124 iterations, 0.08 seconds

    Nodes    |    Current Node    |     Objective Bounds      |     Work
 Expl Unexpl |  Obj  Depth IntInf | Incumbent    BestBd   Gap | It/Node Time

*    0     0               0    -1596.000000 -1596.0000  0.00%     -    0s

Explored 0 nodes (2250 simplex iterations) in 0.35 seconds
Thread count was 4 (of 4 available processors)

Solution count 1: -1596 

Optimal solution found (tolerance 1.00e-04)
Best objective -1.596000000000e+03, best bound -1.596000000000e+03, gap 0.0000%
Optimize a model with 1102 rows, 18300 columns and 53143 nonzeros
Variable types: 0 continuous, 18300 integer (18300 binary)
Coefficient statistics:
  Matrix range     [1e+00, 1e+00]
  Objective range  [1e+00, 1e+03]
  Bounds range     [1e+00, 1e+00]
  RHS range        [1e+00, 1e+00]
Presolve removed 265 rows and 2988 columns
Presolve time: 0.18s
Presolved: 837 rows, 15312 columns, 44653 nonzeros
Variable types: 0 continuous, 15312 integer (15312 binary)

Root relaxation: objective -1.297000e+03, 1060 iterations, 0.08 seconds

    Nodes    |    Current Node    |     Objective Bounds      |     Work
 Expl Unexpl |  Obj  Depth IntInf | Incumbent    BestBd   Gap | It/Node Time

     0     0 -1297.0000    0    6          - -1297.0000      -     -    0s
     0     0 -1296.5000    0    9          - -1296.5000      -     -    0s
     0     0 -796.66667    0   25          - -796.66667      -     -    0s
     0     0 -796.33333    0   24          - -796.33333      -     -    0s
     0     0 -796.33333    0   20          - -796.33333      -     -    1s
H    0     0                       3.0000000 -796.33333      -     -    1s
     0     0  -96.50000    0   15    3.00000  -96.50000  3317%     -    1s
*    0     0               0     -96.0000000  -96.00000  0.00%     -    1s
     0     0          -    0       -96.00000  -96.00000  0.00%     -    1s

Cutting planes:
  Zero half: 7

Explored 1 nodes (14715 simplex iterations) in 2.00 seconds
Thread count was 4 (of 4 available processors)

Solution count 2: -96 3 

Optimal solution found (tolerance 1.00e-04)
Best objective -9.600000000000e+01, best bound -9.600000000000e+01, gap 0.0000%
Optimize a model with 1096 rows, 18300 columns and 44404 nonzeros
Variable types: 0 continuous, 18300 integer (18300 binary)
Coefficient statistics:
  Matrix range     [1e+00, 1e+00]
  Objective range  [1e+00, 1e+03]
  Bounds range     [1e+00, 1e+00]
  RHS range        [1e+00, 1e+00]
Presolve removed 270 rows and 2435 columns
Presolve time: 0.15s
Presolved: 826 rows, 15865 columns, 38531 nonzeros
Variable types: 0 continuous, 15865 integer (15865 binary)

Root relaxation: objective -1.798000e+03, 1856 iterations, 0.05 seconds

    Nodes    |    Current Node    |     Objective Bounds      |     Work
 Expl Unexpl |  Obj  Depth IntInf | Incumbent    BestBd   Gap | It/Node Time

*    0     0               0    -1798.000000 -1798.0000  0.00%     -    0s

Explored 0 nodes (1856 simplex iterations) in 0.27 seconds
Thread count was 4 (of 4 available processors)

Solution count 1: -1798 

Optimal solution found (tolerance 1.00e-04)
Best objective -1.798000000000e+03, best bound -1.798000000000e+03, gap 0.0000%
Optimize a model with 1097 rows, 18300 columns and 45708 nonzeros
Variable types: 0 continuous, 18300 integer (18300 binary)
Coefficient statistics:
  Matrix range     [1e+00, 1e+00]
  Objective range  [1e+00, 1e+03]
  Bounds range     [1e+00, 1e+00]
  RHS range        [1e+00, 1e+00]
Presolve removed 269 rows and 2482 columns
Presolve time: 0.19s
Presolved: 828 rows, 15818 columns, 39575 nonzeros
Variable types: 0 continuous, 15818 integer (15818 binary)

Root relaxation: objective -1.698000e+03, 1744 iterations, 0.09 seconds

    Nodes    |    Current Node    |     Objective Bounds      |     Work
 Expl Unexpl |  Obj  Depth IntInf | Incumbent    BestBd   Gap | It/Node Time

*    0     0               0    -1698.000000 -1698.0000  0.00%     -    0s

Explored 0 nodes (1744 simplex iterations) in 0.35 seconds
Thread count was 4 (of 4 available processors)

Solution count 1: -1698 

Optimal solution found (tolerance 1.00e-04)
Best objective -1.698000000000e+03, best bound -1.698000000000e+03, gap 0.0000%
Optimize a model with 1098 rows, 18300 columns and 47156 nonzeros
Variable types: 0 continuous, 18300 integer (18300 binary)
Coefficient statistics:
  Matrix range     [1e+00, 1e+00]
  Objective range  [1e+00, 1e+03]
  Bounds range     [1e+00, 1e+00]
  RHS range        [1e+00, 1e+00]
Presolve removed 269 rows and 2602 columns
Presolve time: 0.20s
Presolved: 829 rows, 15698 columns, 40551 nonzeros
Variable types: 0 continuous, 15698 integer (15698 binary)
Found heuristic solution: objective -1095.000000

Root relaxation: objective -1.597000e+03, 1829 iterations, 0.07 seconds

    Nodes    |    Current Node    |     Objective Bounds      |     Work
 Expl Unexpl |  Obj  Depth IntInf | Incumbent    BestBd   Gap | It/Node Time

*    0     0               0    -1597.000000 -1597.0000  0.00%     -    0s

Explored 0 nodes (1829 simplex iterations) in 0.35 seconds
Thread count was 4 (of 4 available processors)

Solution count 2: -1597 -1095 

Optimal solution found (tolerance 1.00e-04)
Best objective -1.597000000000e+03, best bound -1.597000000000e+03, gap 0.0000%
Optimize a model with 1099 rows, 18300 columns and 48655 nonzeros
Variable types: 0 continuous, 18300 integer (18300 binary)
Coefficient statistics:
  Matrix range     [1e+00, 1e+00]
  Objective range  [1e+00, 1e+03]
  Bounds range     [1e+00, 1e+00]
  RHS range        [1e+00, 1e+00]
Presolve removed 265 rows and 2552 columns
Presolve time: 0.18s
Presolved: 834 rows, 15748 columns, 42009 nonzeros
Variable types: 0 continuous, 15748 integer (15748 binary)

Root relaxation: objective -1.597000e+03, 2124 iterations, 0.08 seconds

    Nodes    |    Current Node    |     Objective Bounds      |     Work
 Expl Unexpl |  Obj  Depth IntInf | Incumbent    BestBd   Gap | It/Node Time

*    0     0               0    -1596.000000 -1596.0000  0.00%     -    0s

Explored 0 nodes (2250 simplex iterations) in 0.35 seconds
Thread count was 4 (of 4 available processors)

Solution count 1: -1596 

Optimal solution found (tolerance 1.00e-04)
Best objective -1.596000000000e+03, best bound -1.596000000000e+03, gap 0.0000%

Gurobi 8.0.1 (win64, Python) logging started 08/27/19 16:59:17


--------------------------------------------
Warning: your license will expire in 10 days
--------------------------------------------

Academic license - for non-commercial use only
Optimize a model with 1102 rows, 18300 columns and 53143 nonzeros
Variable types: 0 continuous, 18300 integer (18300 binary)
Coefficient statistics:
  Matrix range     [1e+00, 1e+00]
  Objective range  [1e+00, 1e+03]
  Bounds range     [1e+00, 1e+00]
  RHS range        [1e+00, 1e+00]
Presolve removed 265 rows and 2988 columns
Presolve time: 0.35s
Presolved: 837 rows, 15312 columns, 44653 nonzeros
Variable types: 0 continuous, 15312 integer (15312 binary)

Root relaxation: objective -1.297000e+03, 1060 iterations, 0.12 seconds

    Nodes    |    Current Node    |     Objective Bounds      |     Work
 Expl Unexpl |  Obj  Depth IntInf | Incumbent    BestBd   Gap | It/Node Time

     0     0 -1297.0000    0    6          - -1297.0000      -     -    0s
     0     0 -1296.5000    0    9          - -1296.5000      -     -    1s
     0     0 -796.66667    0   25          - -796.66667      -     -    1s
     0     0 -796.33333    0   24          - -796.33333      -     -    1s
     0     0 -796.33333    0   20          - -796.33333      -     -    2s
H    0     0                       3.0000000 -796.33333      -     -    2s
     0     0  -96.50000    0   15    3.00000  -96.50000  3317%     -    3s
*    0     0               0     -96.0000000  -96.00000  0.00%     -    3s
     0     0          -    0       -96.00000  -96.00000  0.00%     -    3s

Cutting planes:
  Zero half: 7

Explored 1 nodes (14715 simplex iterations) in 3.53 seconds
Thread count was 4 (of 4 available processors)

Solution count 2: -96 3 

Optimal solution found (tolerance 1.00e-04)
Best objective -9.600000000000e+01, best bound -9.600000000000e+01, gap 0.0000%
Optimize a model with 1096 rows, 18300 columns and 44404 nonzeros
Variable types: 0 continuous, 18300 integer (18300 binary)
Coefficient statistics:
  Matrix range     [1e+00, 1e+00]
  Objective range  [1e+00, 1e+03]
  Bounds range     [1e+00, 1e+00]
  RHS range        [1e+00, 1e+00]
Presolve removed 270 rows and 2435 columns
Presolve time: 0.20s
Presolved: 826 rows, 15865 columns, 38531 nonzeros
Variable types: 0 continuous, 15865 integer (15865 binary)

Root relaxation: objective -1.798000e+03, 1856 iterations, 0.08 seconds

    Nodes    |    Current Node    |     Objective Bounds      |     Work
 Expl Unexpl |  Obj  Depth IntInf | Incumbent    BestBd   Gap | It/Node Time

*    0     0               0    -1798.000000 -1798.0000  0.00%     -    0s

Explored 0 nodes (1856 simplex iterations) in 0.37 seconds
Thread count was 4 (of 4 available processors)

Solution count 1: -1798 

Optimal solution found (tolerance 1.00e-04)
Best objective -1.798000000000e+03, best bound -1.798000000000e+03, gap 0.0000%
Optimize a model with 1097 rows, 18300 columns and 45708 nonzeros
Variable types: 0 continuous, 18300 integer (18300 binary)
Coefficient statistics:
  Matrix range     [1e+00, 1e+00]
  Objective range  [1e+00, 1e+03]
  Bounds range     [1e+00, 1e+00]
  RHS range        [1e+00, 1e+00]
Presolve removed 269 rows and 2482 columns
Presolve time: 0.19s
Presolved: 828 rows, 15818 columns, 39575 nonzeros
Variable types: 0 continuous, 15818 integer (15818 binary)

Root relaxation: objective -1.698000e+03, 1744 iterations, 0.06 seconds

    Nodes    |    Current Node    |     Objective Bounds      |     Work
 Expl Unexpl |  Obj  Depth IntInf | Incumbent    BestBd   Gap | It/Node Time

*    0     0               0    -1698.000000 -1698.0000  0.00%     -    0s

Explored 0 nodes (1744 simplex iterations) in 0.36 seconds
Thread count was 4 (of 4 available processors)

Solution count 1: -1698 

Optimal solution found (tolerance 1.00e-04)
Best objective -1.698000000000e+03, best bound -1.698000000000e+03, gap 0.0000%
Optimize a model with 1098 rows, 18300 columns and 47156 nonzeros
Variable types: 0 continuous, 18300 integer (18300 binary)
Coefficient statistics:
  Matrix range     [1e+00, 1e+00]
  Objective range  [1e+00, 1e+03]
  Bounds range     [1e+00, 1e+00]
  RHS range        [1e+00, 1e+00]
Presolve removed 269 rows and 2602 columns
Presolve time: 0.19s
Presolved: 829 rows, 15698 columns, 40551 nonzeros
Variable types: 0 continuous, 15698 integer (15698 binary)
Found heuristic solution: objective -1095.000000

Root relaxation: objective -1.597000e+03, 1829 iterations, 0.15 seconds

    Nodes    |    Current Node    |     Objective Bounds      |     Work
 Expl Unexpl |  Obj  Depth IntInf | Incumbent    BestBd   Gap | It/Node Time

*    0     0               0    -1597.000000 -1597.0000  0.00%     -    0s

Explored 0 nodes (1829 simplex iterations) in 0.46 seconds
Thread count was 4 (of 4 available processors)

Solution count 2: -1597 -1095 

Optimal solution found (tolerance 1.00e-04)
Best objective -1.597000000000e+03, best bound -1.597000000000e+03, gap 0.0000%
Optimize a model with 1099 rows, 18300 columns and 48655 nonzeros
Variable types: 0 continuous, 18300 integer (18300 binary)
Coefficient statistics:
  Matrix range     [1e+00, 1e+00]
  Objective range  [1e+00, 1e+03]
  Bounds range     [1e+00, 1e+00]
  RHS range        [1e+00, 1e+00]
Presolve removed 265 rows and 2552 columns
Presolve time: 0.28s
Presolved: 834 rows, 15748 columns, 42009 nonzeros
Variable types: 0 continuous, 15748 integer (15748 binary)

Root relaxation: objective -1.597000e+03, 2124 iterations, 0.12 seconds

    Nodes    |    Current Node    |     Objective Bounds      |     Work
 Expl Unexpl |  Obj  Depth IntInf | Incumbent    BestBd   Gap | It/Node Time

*    0     0               0    -1596.000000 -1596.0000  0.00%     -    0s

Explored 0 nodes (2250 simplex iterations) in 0.56 seconds
Thread count was 4 (of 4 available processors)

Solution count 1: -1596 

Optimal solution found (tolerance 1.00e-04)
Best objective -1.596000000000e+03, best bound -1.596000000000e+03, gap 0.0000%
